c read Graph
c width = 2
c time = 67 ms
c width = 2
c time = 4482 ms
s td 20 3 22
b 1 1 2 13
b 2 2 3 14
b 3 3 4 15
b 4 4 5 16
b 5 5 6 17
b 6 6 7 18
b 7 7 8 19
b 8 8 9 20
b 9 9 10 21
b 10 10 11 22
b 11 10 21 22
b 12 9 20 21
b 13 8 19 20
b 14 7 18 19
b 15 6 17 18
b 16 5 16 17
b 17 4 15 16
b 18 3 14 15
b 19 2 13 14
b 20 1 12 13
1 20
1 19
2 19
2 18
3 18
3 17
4 17
4 16
5 16
5 15
6 15
6 14
7 14
7 13
8 13
8 12
9 12
9 11
10 11
